
Gurobi 9.1.0 (win64) logging started Tue Dec 15 14:47:31 2020

Changed value of parameter LogFile to logs/iteration4
   Prev:   Default: 
Gurobi Optimizer version 9.1.0 build v9.1.0rc0 (win64)
Thread count: 4 physical cores, 8 logical processors, using up to 8 threads
Optimize a model with 136 rows, 286 columns and 886 nonzeros
Model fingerprint: 0xdea1eb41
Coefficient statistics:
  Matrix range     [1e+00, 1e+00]
  Objective range  [1e+03, 3e+03]
  Bounds range     [0e+00, 0e+00]
  RHS range        [1e+00, 1e+00]
Presolve removed 62 rows and 62 columns
Presolve time: 0.00s
Presolved: 74 rows, 224 columns, 824 nonzeros

Iteration    Objective       Primal Inf.    Dual Inf.      Time
       0    9.3115500e+04   7.400000e+01   0.000000e+00      0s
      94    1.4145204e+05   0.000000e+00   0.000000e+00      0s

Solved in 94 iterations and 0.00 seconds
Optimal objective  1.414520417e+05

Solutionx[24] 1.000000 
x[26] 1.000000 
x[27] 1.000000 
x[45] 0.500000 
x[50] 0.333333 
x[52] 0.500000 
x[54] 1.000000 
x[55] 1.000000 
x[57] 0.666667 
x[61] 1.000000 
x[62] 1.000000 
x[63] 1.000000 
x[64] 1.000000 
x[65] 1.000000 
x[66] 1.000000 
x[67] 1.000000 
x[68] 1.000000 
x[70] 1.000000 
x[71] 1.000000 
x[72] 1.000000 
x[74] 1.000000 
x[76] 1.000000 
x[77] 1.000000 
x[78] 1.000000 
x[82] 1.000000 
x[83] 1.000000 
x[84] 1.000000 
x[87] 1.000000 
x[89] 1.000000 
x[90] 1.000000 
x[93] 1.000000 
x[94] 1.000000 
x[96] 1.000000 
x[97] 1.000000 
x[99] 1.000000 
x[100] 1.000000 
x[101] 1.000000 
x[102] 1.000000 
x[103] 1.000000 
x[104] 1.000000 
x[105] 1.000000 
x[106] 1.000000 
x[107] 1.000000 
x[108] 1.000000 
x[111] 1.000000 
x[112] 1.000000 
x[113] 1.000000 
x[114] 1.000000 
x[115] 1.000000 
x[116] 1.000000 
x[117] 1.000000 
x[118] 1.000000 
x[120] 1.000000 
x[121] 1.000000 
x[122] 1.000000 
x[123] 1.000000 
x[124] 1.000000 
x[125] 1.000000 
x[126] 1.000000 
x[127] 1.000000 
x[128] 1.000000 
x[129] 1.000000 
x[130] 1.000000 
x[131] 1.000000 
x[132] 1.000000 
x[133] 1.000000 
x[134] 1.000000 
x[135] 1.000000 
x[264] 0.333333 
x[696] 0.333333 
x[728] 1.000000 
x[731] 1.000000 
x[810] 0.500000 
x[821] 1.000000 
x[906] 0.333333 
x[1611] 0.166667 
x[1733] 0.333333 
x[1772] 1.000000 
x[2222] 0.166667 
x[2542] 0.666667 
x[2863] 0.666667 
x[2864] 0.333333 
x[2915] 0.500000 
x[3183] 0.666667 
x[5967] 0.333333 
x[7883] 0.333333 
x[8298] 0.666667 
x[10635] 0.333333 
x[19863] 0.333333 
x[20743] 0.666667 
x[23633] 0.333333 
x[29183] 0.333333 
x[31258] 0.333333 
x[9909] 0.333333 
x[9961] 1.000000 
x[1740] 1.000000 
x[9652] 1.000000 
x[3188] 1.000000 
x[9476] 1.000000 
x[13128] 1.000000 
